* ENCODING=ISO-8859-1
NAME          CPLEX
ROWS
 N  obj1    
 G  c1      
 G  c2      
 G  c3      
 G  c4      
 G  c5      
 G  c6      
 G  c7      
 G  c8      
 G  c9      
 G  c10     
 G  c11     
 G  c12     
 G  c13     
 G  c14     
 G  c15     
 G  c16     
 G  c17     
 G  c18     
 G  c19     
 G  c20     
 G  c21     
 G  c22     
 G  c23     
 G  c24     
 G  c25     
 G  c26     
 G  c27     
 G  c28     
 G  c29     
 G  c30     
 G  c31     
 G  c32     
 G  c33     
 G  c34     
 G  c35     
 G  c36     
 G  c37     
 G  c38     
 G  c39     
 G  c40     
 G  c41     
 G  c42     
 G  c43     
 G  c44     
 G  c45     
 G  c46     
 G  c47     
 G  c48     
 G  c49     
 G  c50     
 G  c51     
 G  c52     
 G  c53     
 G  c54     
 G  c55     
 G  c56     
 G  c57     
 G  c58     
 G  c59     
 G  c60     
COLUMNS
    MARK0000  'MARKER'                 'INTORG'
    x1        obj1                            1
    x1        c9                            342
    x1        c27                           256
    x1        c29                           455
    x1        c44                           525
    x2        obj1                            1
    x2        c8                            348
    x2        c39                           299
    x2        c58                           335
    x3        obj1                            1
    x3        c4                            504
    x3        c21                           931
    x3        c24                           648
    x3        c32                           298
    x3        c57                           574
    x4        obj1                            1
    x4        c11                           352
    x4        c13                           910
    x4        c15                           190
    x4        c23                           261
    x4        c28                           473
    x4        c32                           693
    x4        c34                           178
    x4        c47                           500
    x5        obj1                            1
    x5        c3                            107
    x5        c17                           806
    x5        c56                           947
    x6        obj1                            1
    x6        c16                           734
    x6        c18                           567
    x6        c49                           227
    x6        c50                           112
    x6        c59                           675
    x7        obj1                            1
    x7        c12                           365
    x7        c40                           361
    x7        c46                           840
    x7        c55                           443
    x8        obj1                            1
    x8        c2                            784
    x8        c15                           401
    x8        c23                           855
    x8        c31                           682
    x8        c33                           234
    x8        c35                           837
    x8        c37                           776
    x8        c39                           776
    x8        c50                           747
    x8        c53                           136
    x8        c58                           254
    x9        obj1                            1
    x9        c7                            689
    x9        c9                            494
    x9        c24                           217
    x9        c46                           282
    x9        c47                           459
    x9        c49                           263
    x9        c50                           982
    x9        c52                           143
    x9        c57                           294
    x10       obj1                            1
    x10       c11                           719
    x10       c13                           892
    x10       c17                           918
    x10       c28                           368
    x10       c45                           538
    x10       c49                           709
    x10       c53                           908
    x11       obj1                            1
    x11       c22                           732
    x11       c40                           429
    x11       c42                           491
    x11       c56                           261
    x12       obj1                            1
    x12       c29                           505
    x12       c39                           743
    x12       c40                           911
    x12       c41                           889
    x13       obj1                            1
    x13       c4                            316
    x13       c14                           966
    x13       c15                           740
    x13       c18                           532
    x13       c30                           895
    x13       c33                           783
    x13       c34                           605
    x13       c46                           361
    x13       c50                           753
    x14       obj1                            1
    x14       c5                            513
    x14       c50                           384
    x15       obj1                            1
    x15       c8                            505
    x15       c22                           353
    x15       c56                           430
    x16       obj1                            1
    x16       c11                           717
    x16       c12                           749
    x16       c16                           496
    x16       c33                           694
    x16       c51                           315
    x17       obj1                            1
    x17       c5                            152
    x17       c17                           885
    x17       c20                           991
    x17       c23                           708
    x17       c45                           438
    x17       c47                           128
    x18       obj1                            1
    x18       c6                            356
    x18       c19                           606
    x18       c41                           626
    x18       c52                           395
    x18       c56                           445
    x19       obj1                            1
    x19       c7                            910
    x19       c30                           363
    x19       c32                           283
    x19       c46                           579
    x19       c52                           902
    x20       obj1                            1
    x20       c6                            115
    x20       c10                           678
    x20       c12                           799
    x20       c13                           790
    x20       c15                           408
    x20       c37                           565
    x20       c49                           418
    x21       obj1                            1
    x21       c23                           159
    x21       c42                           165
    x21       c46                           393
    x21       c52                           190
    x22       obj1                            1
    x22       c5                            587
    x22       c14                           633
    x22       c24                           540
    x22       c37                           441
    x22       c41                           421
    x22       c48                           859
    x22       c58                           770
    x23       obj1                            1
    x23       c3                            371
    x23       c9                            797
    x23       c19                           848
    x23       c22                           588
    x23       c26                           109
    x23       c34                           457
    x24       obj1                            1
    x24       c5                            227
    x24       c8                            753
    x24       c11                           371
    x24       c36                           217
    x24       c42                           256
    x25       obj1                            1
    x25       c27                           296
    x25       c37                           150
    x25       c47                           700
    x25       c53                           835
    x26       obj1                            1
    x26       c21                           561
    x26       c24                           715
    x26       c27                           182
    x26       c41                           846
    x26       c52                           890
    x26       c53                           502
    x27       obj1                            1
    x27       c6                            265
    x27       c7                            438
    x27       c18                           572
    x28       obj1                            1
    x28       c5                            365
    x28       c15                           800
    x28       c29                           153
    x28       c30                           369
    x28       c31                           182
    x28       c36                           319
    x28       c39                           998
    x28       c59                           105
    x29       obj1                            1
    x29       c2                            443
    x29       c5                            136
    x29       c7                            879
    x29       c23                           652
    x29       c35                           658
    x29       c41                           738
    x29       c44                           950
    x29       c47                           250
    x29       c57                           205
    x30       obj1                            1
    x30       c11                           810
    x30       c28                           853
    x31       obj1                            1
    x31       c18                           198
    x31       c22                           334
    x31       c53                           583
    x31       c57                           205
    x32       obj1                            1
    x32       c20                           211
    x32       c23                           579
    x32       c33                           657
    x32       c35                           469
    x32       c47                           545
    x32       c48                           559
    x32       c50                           508
    x32       c54                           929
    x32       c56                           999
    x33       obj1                            1
    x33       c1                            483
    x33       c5                            143
    x33       c17                           760
    x33       c25                           885
    x33       c32                           348
    x33       c48                           434
    x33       c52                           780
    x34       obj1                            1
    x34       c8                            486
    x34       c9                            905
    x34       c13                           369
    x34       c22                           104
    x34       c26                           488
    x34       c34                           279
    x34       c40                           983
    x35       obj1                            1
    x35       c15                           231
    x35       c17                           288
    x35       c19                           429
    x35       c20                           593
    x35       c24                           836
    x35       c26                           480
    x35       c27                           976
    x35       c31                           577
    x35       c38                           611
    x35       c58                           821
    x36       obj1                            1
    x36       c10                           541
    x36       c32                           417
    x36       c38                           129
    x36       c43                           825
    x36       c46                           124
    x36       c52                           187
    x37       obj1                            1
    x37       c5                            158
    x37       c20                           445
    x37       c24                           140
    x37       c25                           541
    x37       c32                           542
    x37       c34                           386
    x38       obj1                            1
    x38       c14                           801
    x38       c16                           231
    x38       c19                           442
    x38       c27                           168
    x38       c58                           543
    x38       c59                           783
    x39       obj1                            1
    x39       c13                           670
    x39       c16                           833
    x39       c24                           801
    x39       c47                           965
    x39       c54                           369
    x40       obj1                            1
    x40       c34                           288
    x40       c37                           389
    x40       c41                           359
    x40       c48                           813
    x40       c54                           612
    x41       obj1                            1
    x41       c3                            800
    x41       c13                           935
    x41       c17                           596
    x41       c20                           361
    x41       c22                           493
    x41       c55                           178
    x42       obj1                            1
    x42       c23                           933
    x42       c33                           159
    x42       c41                           221
    x42       c50                           429
    x42       c58                           321
    x43       obj1                            1
    x43       c1                            707
    x43       c10                           899
    x43       c20                           979
    x43       c26                           315
    x43       c27                           311
    x43       c31                           555
    x43       c32                           506
    x43       c44                           482
    x43       c48                           842
    x44       obj1                            1
    x44       c3                            566
    x44       c9                            917
    x44       c11                           356
    x44       c35                           164
    x45       obj1                            1
    x45       c28                           259
    x45       c36                           330
    x45       c42                           862
    x45       c47                           104
    x45       c53                           616
    x46       obj1                            1
    x46       c1                            718
    x46       c16                           222
    x46       c23                           849
    x46       c25                           214
    x46       c29                           185
    x46       c35                           705
    x46       c39                           678
    x46       c59                           884
    x47       obj1                            1
    x47       c2                            795
    x47       c4                            797
    x47       c33                           708
    x47       c40                           368
    x47       c42                           155
    x48       obj1                            1
    x48       c1                            230
    x48       c10                           543
    x48       c12                           472
    x48       c28                           547
    x48       c40                           519
    x48       c43                           919
    x48       c51                           863
    x48       c60                           615
    x49       obj1                            1
    x49       c6                            711
    x49       c9                            150
    x49       c29                           701
    x49       c31                           660
    x49       c34                           772
    x50       obj1                            1
    x50       c2                            675
    x50       c11                           115
    x50       c13                           488
    x50       c28                           725
    x50       c40                           296
    x50       c51                           145
    x50       c55                           860
    x50       c59                           705
    x50       c60                           748
    x51       obj1                            1
    x51       c8                            259
    x51       c11                           942
    x51       c18                           448
    x51       c31                           192
    x51       c33                           539
    x51       c38                           767
    x51       c39                           359
    x51       c49                           612
    x51       c53                           443
    x51       c54                           673
    x52       obj1                            1
    x52       c12                           499
    x52       c17                           102
    x52       c18                           229
    x52       c21                           134
    x52       c27                           361
    x52       c31                           916
    x52       c53                           929
    x53       obj1                            1
    x53       c3                            390
    x53       c22                           695
    x53       c32                           212
    x53       c41                           536
    x53       c42                           354
    x53       c44                           270
    x53       c56                           782
    x54       obj1                            1
    x54       c12                           603
    x54       c14                           547
    x54       c24                           289
    x54       c27                           383
    x54       c28                           179
    x54       c39                           270
    x54       c43                           538
    x54       c49                           769
    x54       c58                           246
    x55       obj1                            1
    x55       c2                            924
    x55       c3                            765
    x55       c9                            366
    x55       c15                           698
    x55       c24                           990
    x55       c26                           150
    x56       obj1                            1
    x56       c11                           987
    x56       c15                           374
    x56       c26                           603
    x56       c34                           998
    x56       c39                           270
    x57       obj1                            1
    x57       c10                           362
    x57       c49                           799
    x58       obj1                            1
    x58       c5                            708
    x58       c8                            991
    x58       c17                           462
    x58       c19                           780
    x58       c20                           569
    x58       c26                           301
    x58       c36                           993
    x58       c49                           776
    x58       c56                           336
    x58       c60                           795
    x59       obj1                            1
    x59       c7                            970
    x59       c9                            535
    x59       c12                           383
    x59       c13                           993
    x59       c27                           300
    x59       c33                           445
    x59       c43                           230
    x59       c44                           143
    x59       c45                           100
    x60       obj1                            1
    x60       c18                           571
    x60       c39                           472
    x60       c41                           820
    x60       c53                           360
    MARK0001  'MARKER'                 'INTEND'
RHS
    rhs       c1                           1069
    rhs       c2                           1811
    rhs       c3                           1500
    rhs       c4                            809
    rhs       c5                           1495
    rhs       c6                            724
    rhs       c7                           1943
    rhs       c8                           1671
    rhs       c9                           2253
    rhs       c10                          1512
    rhs       c11                          2685
    rhs       c12                          1935
    rhs       c13                          3024
    rhs       c14                          1474
    rhs       c15                          1921
    rhs       c16                          1258
    rhs       c17                          2409
    rhs       c18                          1559
    rhs       c19                          1553
    rhs       c20                          2075
    rhs       c21                           813
    rhs       c22                          1650
    rhs       c23                          2498
    rhs       c24                          2588
    rhs       c25                           820
    rhs       c26                          1223
    rhs       c27                          1617
    rhs       c28                          1702
    rhs       c29                          1000
    rhs       c30                           814
    rhs       c31                          1882
    rhs       c32                          1650
    rhs       c33                          2110
    rhs       c34                          1982
    rhs       c35                          1417
    rhs       c36                           930
    rhs       c37                          1161
    rhs       c38                           754
    rhs       c39                          2433
    rhs       c40                          1934
    rhs       c41                          2728
    rhs       c42                          1142
    rhs       c43                          1256
    rhs       c44                          1185
    rhs       c45                           538
    rhs       c46                          1290
    rhs       c47                          1826
    rhs       c48                          1754
    rhs       c49                          2287
    rhs       c50                          1958
    rhs       c51                           662
    rhs       c52                          1744
    rhs       c53                          2656
    rhs       c54                          1292
    rhs       c55                           741
    rhs       c56                          2100
    rhs       c57                           639
    rhs       c58                          1645
    rhs       c59                          1576
    rhs       c60                          1079
BOUNDS
 LI bnd       x1        0
 LI bnd       x2        0
 LI bnd       x3        0
 LI bnd       x4        0
 LI bnd       x5        0
 LI bnd       x6        0
 LI bnd       x7        0
 LI bnd       x8        0
 LI bnd       x9        0
 LI bnd       x10       0
 LI bnd       x11       0
 LI bnd       x12       0
 LI bnd       x13       0
 LI bnd       x14       0
 LI bnd       x15       0
 LI bnd       x16       0
 LI bnd       x17       0
 LI bnd       x18       0
 LI bnd       x19       0
 LI bnd       x20       0
 LI bnd       x21       0
 LI bnd       x22       0
 LI bnd       x23       0
 LI bnd       x24       0
 LI bnd       x25       0
 LI bnd       x26       0
 LI bnd       x27       0
 LI bnd       x28       0
 LI bnd       x29       0
 LI bnd       x30       0
 LI bnd       x31       0
 LI bnd       x32       0
 LI bnd       x33       0
 LI bnd       x34       0
 LI bnd       x35       0
 LI bnd       x36       0
 LI bnd       x37       0
 LI bnd       x38       0
 LI bnd       x39       0
 LI bnd       x40       0
 LI bnd       x41       0
 LI bnd       x42       0
 LI bnd       x43       0
 LI bnd       x44       0
 LI bnd       x45       0
 LI bnd       x46       0
 LI bnd       x47       0
 LI bnd       x48       0
 LI bnd       x49       0
 LI bnd       x50       0
 LI bnd       x51       0
 LI bnd       x52       0
 LI bnd       x53       0
 LI bnd       x54       0
 LI bnd       x55       0
 LI bnd       x56       0
 LI bnd       x57       0
 LI bnd       x58       0
 LI bnd       x59       0
 LI bnd       x60       0
ENDATA
